NAME : tsp20_21.156.tour
COMMENT : Length = 156
COMMENT : Found by LKH [Keld Helsgaun]
TYPE : TOUR
DIMENSION : 20
TOUR_SECTION
1
18
4
15
6
2
5
12
9
16
20
11
10
8
7
14
13
17
3
19
-1
EOF
